NAME: ../File/prFile/tspFile/tsp_file38.tsp
COMMENT: TSP file generated by Python
TYPE: TSP
DIMENSION: 30
EDGE_WEIGHT_TYPE: EUC_2D
NODE_COORD_SECTION
1 99 54
2 46 49
3 11 71
4 42 68
5 34 48
6 67 57
7 45 69
8 25 14
9 98 7
10 82 80
11 78 34
12 75 92
13 88 12
14 88 11
15 28 64
16 63 50
17 51 96
18 40 95
19 52 13
20 27 51
21 84 21
22 44 80
23 70 46
24 83 12
25 45 46
26 20 42
27 42 55
28 33 28
29 10 20
30 85 1
EOF
